=1
=2
=0IBM ILOG CPLEX   42.1.0 cb854401 Feb 1, 2023           LEG x86 64bit/Linux    
=1
--- GAMS/Cplex licensed for continuous and discrete problems.
=2
=C
=1
=CReading parameter(s) from "/storage/home/ejm6426/scratch/rtRBA-main/parameterization/kapp/datasets/Rabinowitz2023_batchGlc/min_flux_violation/cplex.opt"
=C>>  optcr = 1E-12
=C>>  optca = 1E-12
=C>>  eprhs = 1E-9
=C>> 
=CFinished reading from "/storage/home/ejm6426/scratch/rtRBA-main/parameterization/kapp/datasets/Rabinowitz2023_batchGlc/min_flux_violation/cplex.opt"
=2
=C
=1
--- GMO setup time: 0.00s
=2
=1
--- Space for names approximately 0.59 Mb
=2
=1
--- Use option 'names no' to turn use of names off
=2
=1
--- GMO memory 7.18 Mb (peak 7.28 Mb)
=2
=1
--- Dictionary memory 0.00 Mb
=2
=1
--- Cplex 22.1.1.0 link memory 0.31 Mb (peak 2.25 Mb)
=2
=1
--- Starting Cplex
=2
=C
Version identifier: 22.1.1.0 | 2022-11-28 | 9160aff4d
CPXPARAM_Advance                                 2
CPXPARAM_Threads                                 1
CPXPARAM_MIP_Display                             4
CPXPARAM_MIP_Pool_Capacity                       0
CPXPARAM_Simplex_Limits_Iterations               1000000
CPXPARAM_Simplex_Tolerances_Feasibility          1.0000000000000001e-09
CPXPARAM_TimeLimit                               1000000
CPXPARAM_MIP_Tolerances_AbsMIPGap                9.9999999999999998e-13
CPXPARAM_MIP_Tolerances_MIPGap                   9.9999999999999998e-13
Tried aggregator 1 time.
LP Presolve eliminated 3472 rows and 8913 columns.
Aggregator did 1672 substitutions.
Reduced LP has 958 rows, 2097 columns, and 14366 nonzeros.
Presolve time = 0.02 sec. (19.84 ticks)

Iteration log . . .
Iteration:     1   Dual objective     = -372545528457517.812500
Iteration:    63   Dual objective     = -5781104877822.996094
Iteration:   174   Dual objective     = 4601605778981.174805
Markowitz threshold set to 0.1
Iteration:   243   Dual objective     = 4602023171489.819336
Removing shift (15).
Dual superbasis exists (5).
=C
=1
--- LP status (3): infeasible.
=2
=1
--- Cplex Time: 0.16sec (det. 60.56 ticks)

=2
=C
=CModel has been proven infeasible
=C
